db/data/149701292822092199167659137399628.z3.out
-------------------
2500.245379953
